NAME: tsp5_18
COMMENT: 5-tsp problem (Padberg/Rinaldi)
TYPE: TSP
DIMENSION: 5
EDGE_WEIGHT_TYPE : EUC_2D
NODE_COORD_SECTION
1.00 34.82 31.23
2.00 8.23 36.83
3.00 38.78 1.88
4.00 5.38 35.00
5.00 22.25 18.78
